c WARNING: for repeatability, setting FPU to use double precision
d VARIABLES            226176       
d CONSTRAINTS          838564       
c ============================[ Problem Statistics ]=============================
c |                                                                             |
c |  Number of variables:        226176                                         |
c |  Number of clauses:          838564                                         |
c |  Parse time:                   0.14 s                                       |
c |                                                                             |
c ============================[ Search Statistics ]==============================
c | Conflicts |          ORIGINAL         |          LEARNT          | Progress |
c |           |    Vars  Clauses Literals |    Limit  Clauses Lit/Cl |          |
c ===============================================================================
c |       100 |  187524   738934  1853651 |   270942      100     65 | 17.089 % |
c |       250 |  187524   738934  1853651 |   298036      250     44 | 17.089 % |
c |       475 |  187524   738934  1853651 |   327840      475     49 | 17.089 % |
c |       812 |  187524   738934  1853651 |   360624      812     33 | 17.089 % |
c |      1318 |  187524   738934  1853651 |   396686     1318     22 | 17.089 % |
c |      2077 |  187524   738934  1853651 |   436355     2077     26 | 17.089 % |
c |      3216 |  187524   738934  1853651 |   479991     3216     82 | 17.089 % |
c |      4924 |  187524   738934  1853651 |   527990     4924     61 | 17.089 % |
c |      7486 |  187524   738934  1853651 |   580789     7486     48 | 17.089 % |
c |     11330 |  187524   738934  1853651 |   638868    11330     42 | 17.089 % |
c |     17096 |  187524   738934  1853651 |   702754    17096     50 | 17.089 % |
c |     25745 |  187524   738934  1853651 |   773030    25745     63 | 17.089 % |
c |     38719 |  187523   738930  1853641 |   850333    38718     78 | 17.090 % |
c |     58180 |  187523   738930  1853641 |   935366    58179     85 | 17.090 % |
c |     87372 |  187523   738930  1853641 |  1028903    87371     89 | 17.090 % |
c |    131161 |  187523   738930  1853641 |  1131793   131160    109 | 17.090 % |
c |    196845 |  187523   738930  1853641 |  1244973   196844    125 | 17.090 % |
c |    295371 |  187523   738930  1853641 |  1369470   295370    139 | 17.090 % |
c |    443160 |  187523   738930  1853641 |  1506417   443159    154 | 17.090 % |
c ===============================================================================
c restarts              : 1387
c conflicts             : 645704         (2036 /sec)
c decisions             : 3993099        (0.00 % random) (12589 /sec)
c propagations          : 1300834868     (4101098 /sec)
c conflict literals     : 116880026      (21.94 % deleted)
d RESTARTS             1387
d FAILURES             645704       
d NODES                3993099      
d BACKTRACKS           3993099      
d PROPAGATIONS         1300834868   
d NOGOODSIZE           181.01 
d MEMORY               645.00 
d TIME                 317.192 

s SATISFIABLE
